(set-info :smt-lib-version 2.6)
(set-logic QF_NIA)
(set-info :source |
Generated by: Cristina Borralleras, Daniel Larraz, Albert Oliveras, Enric Rodriguez-Carbonell, Albert Rubio
Generated on: 2017-04-27
Generator: VeryMax
Application: Termination proving
Target solver: barcelogic
|)
(set-info :license "https://creativecommons.org/licenses/by/4.0/")
(set-info :category "industrial")
(set-info :status sat)
(declare-fun Nl2main_i1 () Int)
(declare-fun Nl2main_j1 () Int)
(declare-fun Nl2main_k1 () Int)
(declare-fun Nl2main_an1 () Int)
(declare-fun Nl2main_bn1 () Int)
(declare-fun Nl2main_tk1 () Int)
(declare-fun Nl2main_i2 () Int)
(declare-fun Nl2main_j2 () Int)
(declare-fun Nl2main_k2 () Int)
(declare-fun Nl2main_an2 () Int)
(declare-fun Nl2main_bn2 () Int)
(declare-fun Nl2main_tk2 () Int)
(declare-fun lam0n0 () Int)
(declare-fun lam0n1 () Int)
(declare-fun lam0n2 () Int)
(declare-fun lam0n4 () Int)
(declare-fun lam0n5 () Int)
(declare-fun Nl2CT1 () Int)
(declare-fun Nl2CT2 () Int)
(declare-fun lam0n3 () Int)
(declare-fun lam1n0 () Int)
(declare-fun lam1n1 () Int)
(declare-fun lam1n2 () Int)
(declare-fun lam1n4 () Int)
(declare-fun lam1n5 () Int)
(declare-fun lam1n3 () Int)
(declare-fun lam2n0 () Int)
(declare-fun lam2n1 () Int)
(declare-fun lam2n2 () Int)
(declare-fun lam2n4 () Int)
(declare-fun lam2n5 () Int)
(declare-fun lam2n3 () Int)
(declare-fun lam3n0 () Int)
(declare-fun lam3n1 () Int)
(declare-fun lam3n2 () Int)
(declare-fun lam3n4 () Int)
(declare-fun lam3n5 () Int)
(declare-fun lam3n3 () Int)
(declare-fun lam4n0 () Int)
(declare-fun lam4n1 () Int)
(declare-fun lam4n2 () Int)
(declare-fun lam4n4 () Int)
(declare-fun lam4n5 () Int)
(declare-fun lam4n3 () Int)
(declare-fun lam5n0 () Int)
(declare-fun lam5n1 () Int)
(declare-fun lam5n2 () Int)
(declare-fun lam5n4 () Int)
(declare-fun lam5n5 () Int)
(declare-fun lam5n3 () Int)
(declare-fun lam6n0 () Int)
(declare-fun lam6n1 () Int)
(declare-fun lam6n2 () Int)
(declare-fun lam6n3 () Int)
(declare-fun lam6n4 () Int)
(declare-fun lam7n0 () Int)
(declare-fun lam7n1 () Int)
(declare-fun lam7n2 () Int)
(declare-fun lam7n3 () Int)
(declare-fun lam7n4 () Int)
(declare-fun lam8n0 () Int)
(declare-fun lam8n1 () Int)
(declare-fun lam8n2 () Int)
(declare-fun lam8n3 () Int)
(declare-fun lam8n4 () Int)
(declare-fun lam9n0 () Int)
(declare-fun lam9n1 () Int)
(declare-fun lam9n2 () Int)
(declare-fun lam9n3 () Int)
(declare-fun lam9n4 () Int)
(declare-fun lam10n0 () Int)
(declare-fun lam10n1 () Int)
(declare-fun lam10n2 () Int)
(declare-fun lam10n3 () Int)
(declare-fun lam10n4 () Int)
(declare-fun lam11n0 () Int)
(declare-fun lam11n1 () Int)
(declare-fun lam11n2 () Int)
(declare-fun lam11n3 () Int)
(declare-fun lam11n4 () Int)
(declare-fun lam12n0 () Int)
(declare-fun lam12n1 () Int)
(declare-fun lam12n2 () Int)
(declare-fun lam12n3 () Int)
(declare-fun lam12n4 () Int)
(declare-fun lam12n5 () Int)
(declare-fun lam12n6 () Int)
(declare-fun lam13n0 () Int)
(declare-fun lam13n1 () Int)
(declare-fun lam13n2 () Int)
(declare-fun lam13n3 () Int)
(declare-fun lam13n4 () Int)
(declare-fun lam13n5 () Int)
(declare-fun lam13n6 () Int)
(declare-fun main_k () Int)
(declare-fun main_tk () Int)
(declare-fun main_i () Int)
(declare-fun undef10 () Int)
(declare-fun main_j () Int)
(declare-fun undef11 () Int)
(declare-fun undef12 () Int)
(declare-fun main_an () Int)
(declare-fun undef13 () Int)
(declare-fun main_bn () Int)
(declare-fun undef14 () Int)
(declare-fun undef15 () Int)
(declare-fun lam17n0 () Int)
(declare-fun lam17n1 () Int)
(declare-fun lam17n2 () Int)
(declare-fun lam17n4 () Int)
(declare-fun lam17n5 () Int)
(declare-fun lam17n3 () Int)
(declare-fun RFN1_CT () Int)
(declare-fun RFN1_main_j () Int)
(declare-fun RFN1_main_k () Int)
(declare-fun RFN1_main_tk () Int)
(declare-fun RFN1_main_i () Int)
(declare-fun RFN1_main_an () Int)
(declare-fun RFN1_main_bn () Int)
(declare-fun lam21n0 () Int)
(declare-fun lam21n1 () Int)
(declare-fun lam21n2 () Int)
(declare-fun lam21n3 () Int)
(declare-fun lam21n4 () Int)
(declare-fun lam15n0 () Int)
(declare-fun lam15n1 () Int)
(declare-fun lam15n2 () Int)
(declare-fun lam15n4 () Int)
(declare-fun lam15n5 () Int)
(declare-fun lam15n3 () Int)
(declare-fun lam16n0 () Int)
(declare-fun lam16n1 () Int)
(declare-fun lam16n2 () Int)
(declare-fun lam16n4 () Int)
(declare-fun lam16n5 () Int)
(declare-fun lam16n3 () Int)
(declare-fun lam19n0 () Int)
(declare-fun lam19n1 () Int)
(declare-fun lam19n2 () Int)
(declare-fun lam19n3 () Int)
(declare-fun lam19n4 () Int)
(declare-fun lam20n0 () Int)
(declare-fun lam20n1 () Int)
(declare-fun lam20n2 () Int)
(declare-fun lam20n3 () Int)
(declare-fun lam20n4 () Int)
(declare-fun lam14n0 () Int)
(declare-fun lam14n1 () Int)
(declare-fun lam14n2 () Int)
(declare-fun lam14n4 () Int)
(declare-fun lam14n5 () Int)
(declare-fun lam14n3 () Int)
(declare-fun lam18n0 () Int)
(declare-fun lam18n1 () Int)
(declare-fun lam18n2 () Int)
(declare-fun lam18n3 () Int)
(declare-fun lam18n4 () Int)
(assert ( and ( <= ( - 1 ) Nl2main_i1 ) ( <= Nl2main_i1 1 ) ( <= ( - 1 ) Nl2main_j1 ) ( <= Nl2main_j1 1 ) ( <= ( - 1 ) Nl2main_k1 ) ( <= Nl2main_k1 1 ) ( <= ( - 1 ) Nl2main_an1 ) ( <= Nl2main_an1 1 ) ( <= ( - 1 ) Nl2main_bn1 ) ( <= Nl2main_bn1 1 ) ( <= ( - 1 ) Nl2main_tk1 ) ( <= Nl2main_tk1 1 ) ( <= ( - 1 ) Nl2main_i2 ) ( <= Nl2main_i2 1 ) ( <= ( - 1 ) Nl2main_j2 ) ( <= Nl2main_j2 1 ) ( <= ( - 1 ) Nl2main_k2 ) ( <= Nl2main_k2 1 ) ( <= ( - 1 ) Nl2main_an2 ) ( <= Nl2main_an2 1 ) ( <= ( - 1 ) Nl2main_bn2 ) ( <= Nl2main_bn2 1 ) ( <= ( - 1 ) Nl2main_tk2 ) ( <= Nl2main_tk2 1 ) ))
(assert ( or ( and ( >= lam0n0 0 ) ( >= lam0n1 0 ) ( >= lam0n2 0 ) ( >= lam0n4 0 ) ( >= lam0n5 0 ) ( > ( + ( * 1 lam0n2 ) ( * Nl2CT1 lam0n4 ) ( * Nl2CT2 lam0n5 ) ( - 1 ) ) 0 ) ( = ( + ( * 1 lam0n0 ) ( * Nl2main_i1 lam0n4 ) ( * Nl2main_i2 lam0n5 ) ) 0 ) ( = ( + ( * 1 lam0n1 ) ( * Nl2main_j1 lam0n4 ) ( * Nl2main_j2 lam0n5 ) ) 0 ) ( = ( + ( * ( - 1 ) lam0n2 ) ( * Nl2main_k1 lam0n4 ) ( * Nl2main_k2 lam0n5 ) ) 0 ) ( = ( + ( * ( - 1 ) lam0n0 ) ( * Nl2main_an1 lam0n4 ) ( * Nl2main_an2 lam0n5 ) ) 0 ) ( = ( + ( * ( - 1 ) lam0n1 ) ( * Nl2main_bn1 lam0n4 ) ( * Nl2main_bn2 lam0n5 ) ) 0 ) ( = ( + ( * 1 lam0n2 ) ( * Nl2main_tk1 lam0n4 ) ( * Nl2main_tk2 lam0n5 ) ) 0 ) ( = ( * 1 lam0n3 ) 0 ) ) ( and ( >= lam1n0 0 ) ( >= lam1n1 0 ) ( >= lam1n2 0 ) ( >= lam1n4 0 ) ( >= lam1n5 0 ) ( > ( + ( * 1 lam1n2 ) ( * Nl2CT1 lam1n4 ) ( * Nl2CT2 lam1n5 ) ( - 1 ( + Nl2CT1 ( * Nl2main_i1 1 ) ) ) ) 0 ) ( = ( + ( * 1 lam1n0 ) ( * Nl2main_i1 lam1n4 ) ( * Nl2main_i2 lam1n5 ) ( - ( + 0 ( * Nl2main_i1 1 ) ) ) ) 0 ) ( = ( + ( * 1 lam1n1 ) ( * Nl2main_j1 lam1n4 ) ( * Nl2main_j2 lam1n5 ) ( - ( + 0 Nl2main_j1 ) ) ) 0 ) ( = ( + ( * ( - 1 ) lam1n2 ) ( * Nl2main_k1 lam1n4 ) ( * Nl2main_k2 lam1n5 ) ( - ( + 0 Nl2main_k1 ) ) ) 0 ) ( = ( + ( * ( - 1 ) lam1n0 ) ( * Nl2main_an1 lam1n4 ) ( * Nl2main_an2 lam1n5 ) ( - ( + 0 Nl2main_an1 ) ) ) 0 ) ( = ( + ( * ( - 1 ) lam1n1 ) ( * Nl2main_bn1 lam1n4 ) ( * Nl2main_bn2 lam1n5 ) ( - ( + 0 Nl2main_bn1 ) ) ) 0 ) ( = ( + ( * 1 lam1n2 ) ( * Nl2main_tk1 lam1n4 ) ( * Nl2main_tk2 lam1n5 ) ( - ( + 0 Nl2main_tk1 ) ) ) 0 ) ( = ( * 1 lam1n3 ) 0 ) ) ))
(assert ( or ( and ( >= lam0n0 0 ) ( >= lam0n1 0 ) ( >= lam0n2 0 ) ( >= lam0n4 0 ) ( >= lam0n5 0 ) ( > ( + ( * 1 lam0n2 ) ( * Nl2CT1 lam0n4 ) ( * Nl2CT2 lam0n5 ) ( - 1 ) ) 0 ) ( = ( + ( * 1 lam0n0 ) ( * Nl2main_i1 lam0n4 ) ( * Nl2main_i2 lam0n5 ) ) 0 ) ( = ( + ( * 1 lam0n1 ) ( * Nl2main_j1 lam0n4 ) ( * Nl2main_j2 lam0n5 ) ) 0 ) ( = ( + ( * ( - 1 ) lam0n2 ) ( * Nl2main_k1 lam0n4 ) ( * Nl2main_k2 lam0n5 ) ) 0 ) ( = ( + ( * ( - 1 ) lam0n0 ) ( * Nl2main_an1 lam0n4 ) ( * Nl2main_an2 lam0n5 ) ) 0 ) ( = ( + ( * ( - 1 ) lam0n1 ) ( * Nl2main_bn1 lam0n4 ) ( * Nl2main_bn2 lam0n5 ) ) 0 ) ( = ( + ( * 1 lam0n2 ) ( * Nl2main_tk1 lam0n4 ) ( * Nl2main_tk2 lam0n5 ) ) 0 ) ( = ( * 1 lam0n3 ) 0 ) ) ( and ( >= lam2n0 0 ) ( >= lam2n1 0 ) ( >= lam2n2 0 ) ( >= lam2n4 0 ) ( >= lam2n5 0 ) ( > ( + ( * 1 lam2n2 ) ( * Nl2CT1 lam2n4 ) ( * Nl2CT2 lam2n5 ) ( - 1 ( + Nl2CT2 ( * Nl2main_i2 1 ) ) ) ) 0 ) ( = ( + ( * 1 lam2n0 ) ( * Nl2main_i1 lam2n4 ) ( * Nl2main_i2 lam2n5 ) ( - ( + 0 ( * Nl2main_i2 1 ) ) ) ) 0 ) ( = ( + ( * 1 lam2n1 ) ( * Nl2main_j1 lam2n4 ) ( * Nl2main_j2 lam2n5 ) ( - ( + 0 Nl2main_j2 ) ) ) 0 ) ( = ( + ( * ( - 1 ) lam2n2 ) ( * Nl2main_k1 lam2n4 ) ( * Nl2main_k2 lam2n5 ) ( - ( + 0 Nl2main_k2 ) ) ) 0 ) ( = ( + ( * ( - 1 ) lam2n0 ) ( * Nl2main_an1 lam2n4 ) ( * Nl2main_an2 lam2n5 ) ( - ( + 0 Nl2main_an2 ) ) ) 0 ) ( = ( + ( * ( - 1 ) lam2n1 ) ( * Nl2main_bn1 lam2n4 ) ( * Nl2main_bn2 lam2n5 ) ( - ( + 0 Nl2main_bn2 ) ) ) 0 ) ( = ( + ( * 1 lam2n2 ) ( * Nl2main_tk1 lam2n4 ) ( * Nl2main_tk2 lam2n5 ) ( - ( + 0 Nl2main_tk2 ) ) ) 0 ) ( = ( * 1 lam2n3 ) 0 ) ) ))
(assert ( or ( and ( >= lam3n0 0 ) ( >= lam3n1 0 ) ( >= lam3n2 0 ) ( >= lam3n4 0 ) ( >= lam3n5 0 ) ( > ( + ( * 1 lam3n2 ) ( * ( - 1 ) lam3n3 ) ( * Nl2CT1 lam3n4 ) ( * Nl2CT2 lam3n5 ) ( - 1 ) ) 0 ) ( = ( + ( * 1 lam3n0 ) ( * Nl2main_i1 lam3n4 ) ( * Nl2main_i2 lam3n5 ) ) 0 ) ( = ( + ( * 1 lam3n1 ) ( * Nl2main_j1 lam3n4 ) ( * Nl2main_j2 lam3n5 ) ) 0 ) ( = ( + ( * ( - 1 ) lam3n2 ) ( * Nl2main_k1 lam3n4 ) ( * Nl2main_k2 lam3n5 ) ) 0 ) ( = ( + ( * ( - 1 ) lam3n0 ) ( * Nl2main_an1 lam3n4 ) ( * Nl2main_an2 lam3n5 ) ) 0 ) ( = ( + ( * ( - 1 ) lam3n1 ) ( * Nl2main_bn1 lam3n4 ) ( * Nl2main_bn2 lam3n5 ) ) 0 ) ( = ( + ( * 1 lam3n2 ) ( * Nl2main_tk1 lam3n4 ) ( * Nl2main_tk2 lam3n5 ) ) 0 ) ( = ( * 1 lam3n3 ) 0 ) ) ( and ( >= lam4n0 0 ) ( >= lam4n1 0 ) ( >= lam4n2 0 ) ( >= lam4n4 0 ) ( >= lam4n5 0 ) ( > ( + ( * 1 lam4n2 ) ( * ( - 1 ) lam4n3 ) ( * Nl2CT1 lam4n4 ) ( * Nl2CT2 lam4n5 ) ( - 1 ( + ( + ( + Nl2CT1 ( * Nl2main_j1 0 ) ) ( * Nl2main_k1 0 ) ) ( * Nl2main_tk1 0 ) ) ) ) 0 ) ( = ( + ( * 1 lam4n0 ) ( * Nl2main_i1 lam4n4 ) ( * Nl2main_i2 lam4n5 ) ( - ( + 0 Nl2main_i1 ) ) ) 0 ) ( = ( + ( * 1 lam4n1 ) ( * Nl2main_j1 lam4n4 ) ( * Nl2main_j2 lam4n5 ) ( - ( + 0 ( * Nl2main_j1 1 ) ) ) ) 0 ) ( = ( + ( * ( - 1 ) lam4n2 ) ( * Nl2main_k1 lam4n4 ) ( * Nl2main_k2 lam4n5 ) ( - ( + ( + 0 ( * Nl2main_j1 1 ) ) ( * Nl2main_tk1 1 ) ) ) ) 0 ) ( = ( + ( * ( - 1 ) lam4n0 ) ( * Nl2main_an1 lam4n4 ) ( * Nl2main_an2 lam4n5 ) ( - ( + 0 Nl2main_an1 ) ) ) 0 ) ( = ( + ( * ( - 1 ) lam4n1 ) ( * Nl2main_bn1 lam4n4 ) ( * Nl2main_bn2 lam4n5 ) ( - ( + 0 Nl2main_bn1 ) ) ) 0 ) ( = ( + ( * 1 lam4n2 ) ( * Nl2main_tk1 lam4n4 ) ( * Nl2main_tk2 lam4n5 ) ) 0 ) ( = ( * 1 lam4n3 ) 0 ) ( = ( - ( + 0 ( * Nl2main_k1 1 ) ) ) 0 ) ) ))
(assert ( or ( and ( >= lam3n0 0 ) ( >= lam3n1 0 ) ( >= lam3n2 0 ) ( >= lam3n4 0 ) ( >= lam3n5 0 ) ( > ( + ( * 1 lam3n2 ) ( * ( - 1 ) lam3n3 ) ( * Nl2CT1 lam3n4 ) ( * Nl2CT2 lam3n5 ) ( - 1 ) ) 0 ) ( = ( + ( * 1 lam3n0 ) ( * Nl2main_i1 lam3n4 ) ( * Nl2main_i2 lam3n5 ) ) 0 ) ( = ( + ( * 1 lam3n1 ) ( * Nl2main_j1 lam3n4 ) ( * Nl2main_j2 lam3n5 ) ) 0 ) ( = ( + ( * ( - 1 ) lam3n2 ) ( * Nl2main_k1 lam3n4 ) ( * Nl2main_k2 lam3n5 ) ) 0 ) ( = ( + ( * ( - 1 ) lam3n0 ) ( * Nl2main_an1 lam3n4 ) ( * Nl2main_an2 lam3n5 ) ) 0 ) ( = ( + ( * ( - 1 ) lam3n1 ) ( * Nl2main_bn1 lam3n4 ) ( * Nl2main_bn2 lam3n5 ) ) 0 ) ( = ( + ( * 1 lam3n2 ) ( * Nl2main_tk1 lam3n4 ) ( * Nl2main_tk2 lam3n5 ) ) 0 ) ( = ( * 1 lam3n3 ) 0 ) ) ( and ( >= lam5n0 0 ) ( >= lam5n1 0 ) ( >= lam5n2 0 ) ( >= lam5n4 0 ) ( >= lam5n5 0 ) ( > ( + ( * 1 lam5n2 ) ( * ( - 1 ) lam5n3 ) ( * Nl2CT1 lam5n4 ) ( * Nl2CT2 lam5n5 ) ( - 1 ( + ( + ( + Nl2CT2 ( * Nl2main_j2 0 ) ) ( * Nl2main_k2 0 ) ) ( * Nl2main_tk2 0 ) ) ) ) 0 ) ( = ( + ( * 1 lam5n0 ) ( * Nl2main_i1 lam5n4 ) ( * Nl2main_i2 lam5n5 ) ( - ( + 0 Nl2main_i2 ) ) ) 0 ) ( = ( + ( * 1 lam5n1 ) ( * Nl2main_j1 lam5n4 ) ( * Nl2main_j2 lam5n5 ) ( - ( + 0 ( * Nl2main_j2 1 ) ) ) ) 0 ) ( = ( + ( * ( - 1 ) lam5n2 ) ( * Nl2main_k1 lam5n4 ) ( * Nl2main_k2 lam5n5 ) ( - ( + ( + 0 ( * Nl2main_j2 1 ) ) ( * Nl2main_tk2 1 ) ) ) ) 0 ) ( = ( + ( * ( - 1 ) lam5n0 ) ( * Nl2main_an1 lam5n4 ) ( * Nl2main_an2 lam5n5 ) ( - ( + 0 Nl2main_an2 ) ) ) 0 ) ( = ( + ( * ( - 1 ) lam5n1 ) ( * Nl2main_bn1 lam5n4 ) ( * Nl2main_bn2 lam5n5 ) ( - ( + 0 Nl2main_bn2 ) ) ) 0 ) ( = ( + ( * 1 lam5n2 ) ( * Nl2main_tk1 lam5n4 ) ( * Nl2main_tk2 lam5n5 ) ) 0 ) ( = ( * 1 lam5n3 ) 0 ) ( = ( - ( + 0 ( * Nl2main_k2 1 ) ) ) 0 ) ) ))
(assert ( or ( and ( >= lam6n0 0 ) ( >= lam6n1 0 ) ( >= lam6n2 0 ) ( >= lam6n3 0 ) ( >= lam6n4 0 ) ( > ( + ( * 1 lam6n1 ) ( * 1 lam6n2 ) ( * Nl2CT1 lam6n3 ) ( * Nl2CT2 lam6n4 ) ( - 1 ) ) 0 ) ( = ( + ( * 1 lam6n0 ) ( * Nl2main_i1 lam6n3 ) ( * Nl2main_i2 lam6n4 ) ) 0 ) ( = ( + ( * ( - 1 ) lam6n1 ) ( * Nl2main_j1 lam6n3 ) ( * Nl2main_j2 lam6n4 ) ) 0 ) ( = ( + ( * ( - 1 ) lam6n2 ) ( * Nl2main_k1 lam6n3 ) ( * Nl2main_k2 lam6n4 ) ) 0 ) ( = ( + ( * ( - 1 ) lam6n0 ) ( * Nl2main_an1 lam6n3 ) ( * Nl2main_an2 lam6n4 ) ) 0 ) ( = ( + ( * 1 lam6n1 ) ( * Nl2main_bn1 lam6n3 ) ( * Nl2main_bn2 lam6n4 ) ) 0 ) ( = ( + ( * 1 lam6n2 ) ( * Nl2main_tk1 lam6n3 ) ( * Nl2main_tk2 lam6n4 ) ) 0 ) ) ( and ( >= lam7n0 0 ) ( >= lam7n1 0 ) ( >= lam7n2 0 ) ( >= lam7n3 0 ) ( >= lam7n4 0 ) ( > ( + ( * 1 lam7n1 ) ( * 1 lam7n2 ) ( * Nl2CT1 lam7n3 ) ( * Nl2CT2 lam7n4 ) ( - 1 ( + Nl2CT1 ( * Nl2main_i1 1 ) ) ) ) 0 ) ( = ( + ( * 1 lam7n0 ) ( * Nl2main_i1 lam7n3 ) ( * Nl2main_i2 lam7n4 ) ( - ( + 0 ( * Nl2main_i1 1 ) ) ) ) 0 ) ( = ( + ( * ( - 1 ) lam7n1 ) ( * Nl2main_j1 lam7n3 ) ( * Nl2main_j2 lam7n4 ) ( - ( + 0 Nl2main_j1 ) ) ) 0 ) ( = ( + ( * ( - 1 ) lam7n2 ) ( * Nl2main_k1 lam7n3 ) ( * Nl2main_k2 lam7n4 ) ( - ( + 0 Nl2main_k1 ) ) ) 0 ) ( = ( + ( * ( - 1 ) lam7n0 ) ( * Nl2main_an1 lam7n3 ) ( * Nl2main_an2 lam7n4 ) ( - ( + 0 Nl2main_an1 ) ) ) 0 ) ( = ( + ( * 1 lam7n1 ) ( * Nl2main_bn1 lam7n3 ) ( * Nl2main_bn2 lam7n4 ) ( - ( + 0 Nl2main_bn1 ) ) ) 0 ) ( = ( + ( * 1 lam7n2 ) ( * Nl2main_tk1 lam7n3 ) ( * Nl2main_tk2 lam7n4 ) ( - ( + 0 Nl2main_tk1 ) ) ) 0 ) ) ))
(assert ( or ( and ( >= lam6n0 0 ) ( >= lam6n1 0 ) ( >= lam6n2 0 ) ( >= lam6n3 0 ) ( >= lam6n4 0 ) ( > ( + ( * 1 lam6n1 ) ( * 1 lam6n2 ) ( * Nl2CT1 lam6n3 ) ( * Nl2CT2 lam6n4 ) ( - 1 ) ) 0 ) ( = ( + ( * 1 lam6n0 ) ( * Nl2main_i1 lam6n3 ) ( * Nl2main_i2 lam6n4 ) ) 0 ) ( = ( + ( * ( - 1 ) lam6n1 ) ( * Nl2main_j1 lam6n3 ) ( * Nl2main_j2 lam6n4 ) ) 0 ) ( = ( + ( * ( - 1 ) lam6n2 ) ( * Nl2main_k1 lam6n3 ) ( * Nl2main_k2 lam6n4 ) ) 0 ) ( = ( + ( * ( - 1 ) lam6n0 ) ( * Nl2main_an1 lam6n3 ) ( * Nl2main_an2 lam6n4 ) ) 0 ) ( = ( + ( * 1 lam6n1 ) ( * Nl2main_bn1 lam6n3 ) ( * Nl2main_bn2 lam6n4 ) ) 0 ) ( = ( + ( * 1 lam6n2 ) ( * Nl2main_tk1 lam6n3 ) ( * Nl2main_tk2 lam6n4 ) ) 0 ) ) ( and ( >= lam8n0 0 ) ( >= lam8n1 0 ) ( >= lam8n2 0 ) ( >= lam8n3 0 ) ( >= lam8n4 0 ) ( > ( + ( * 1 lam8n1 ) ( * 1 lam8n2 ) ( * Nl2CT1 lam8n3 ) ( * Nl2CT2 lam8n4 ) ( - 1 ( + Nl2CT2 ( * Nl2main_i2 1 ) ) ) ) 0 ) ( = ( + ( * 1 lam8n0 ) ( * Nl2main_i1 lam8n3 ) ( * Nl2main_i2 lam8n4 ) ( - ( + 0 ( * Nl2main_i2 1 ) ) ) ) 0 ) ( = ( + ( * ( - 1 ) lam8n1 ) ( * Nl2main_j1 lam8n3 ) ( * Nl2main_j2 lam8n4 ) ( - ( + 0 Nl2main_j2 ) ) ) 0 ) ( = ( + ( * ( - 1 ) lam8n2 ) ( * Nl2main_k1 lam8n3 ) ( * Nl2main_k2 lam8n4 ) ( - ( + 0 Nl2main_k2 ) ) ) 0 ) ( = ( + ( * ( - 1 ) lam8n0 ) ( * Nl2main_an1 lam8n3 ) ( * Nl2main_an2 lam8n4 ) ( - ( + 0 Nl2main_an2 ) ) ) 0 ) ( = ( + ( * 1 lam8n1 ) ( * Nl2main_bn1 lam8n3 ) ( * Nl2main_bn2 lam8n4 ) ( - ( + 0 Nl2main_bn2 ) ) ) 0 ) ( = ( + ( * 1 lam8n2 ) ( * Nl2main_tk1 lam8n3 ) ( * Nl2main_tk2 lam8n4 ) ( - ( + 0 Nl2main_tk2 ) ) ) 0 ) ) ))
(assert ( or ( and ( >= lam9n0 0 ) ( >= lam9n1 0 ) ( >= lam9n2 0 ) ( >= lam9n3 0 ) ( >= lam9n4 0 ) ( > ( + ( * 1 lam9n1 ) ( * 1 lam9n2 ) ( * Nl2CT1 lam9n3 ) ( * Nl2CT2 lam9n4 ) ( - 1 ) ) 0 ) ( = ( + ( * ( - 1 ) lam9n1 ) ( * Nl2main_i1 lam9n3 ) ( * Nl2main_i2 lam9n4 ) ) 0 ) ( = ( + ( * 1 lam9n0 ) ( * Nl2main_j1 lam9n3 ) ( * Nl2main_j2 lam9n4 ) ) 0 ) ( = ( + ( * ( - 1 ) lam9n2 ) ( * Nl2main_k1 lam9n3 ) ( * Nl2main_k2 lam9n4 ) ) 0 ) ( = ( + ( * 1 lam9n1 ) ( * Nl2main_an1 lam9n3 ) ( * Nl2main_an2 lam9n4 ) ) 0 ) ( = ( + ( * ( - 1 ) lam9n0 ) ( * Nl2main_bn1 lam9n3 ) ( * Nl2main_bn2 lam9n4 ) ) 0 ) ( = ( + ( * 1 lam9n2 ) ( * Nl2main_tk1 lam9n3 ) ( * Nl2main_tk2 lam9n4 ) ) 0 ) ) ( and ( >= lam10n0 0 ) ( >= lam10n1 0 ) ( >= lam10n2 0 ) ( >= lam10n3 0 ) ( >= lam10n4 0 ) ( > ( + ( * 1 lam10n1 ) ( * 1 lam10n2 ) ( * Nl2CT1 lam10n3 ) ( * Nl2CT2 lam10n4 ) ( - 1 ( + ( + ( + Nl2CT1 ( * Nl2main_j1 0 ) ) ( * Nl2main_k1 0 ) ) ( * Nl2main_tk1 0 ) ) ) ) 0 ) ( = ( + ( * ( - 1 ) lam10n1 ) ( * Nl2main_i1 lam10n3 ) ( * Nl2main_i2 lam10n4 ) ( - ( + 0 Nl2main_i1 ) ) ) 0 ) ( = ( + ( * 1 lam10n0 ) ( * Nl2main_j1 lam10n3 ) ( * Nl2main_j2 lam10n4 ) ( - ( + 0 ( * Nl2main_j1 1 ) ) ) ) 0 ) ( = ( + ( * ( - 1 ) lam10n2 ) ( * Nl2main_k1 lam10n3 ) ( * Nl2main_k2 lam10n4 ) ( - ( + ( + 0 ( * Nl2main_j1 1 ) ) ( * Nl2main_tk1 1 ) ) ) ) 0 ) ( = ( + ( * 1 lam10n1 ) ( * Nl2main_an1 lam10n3 ) ( * Nl2main_an2 lam10n4 ) ( - ( + 0 Nl2main_an1 ) ) ) 0 ) ( = ( + ( * ( - 1 ) lam10n0 ) ( * Nl2main_bn1 lam10n3 ) ( * Nl2main_bn2 lam10n4 ) ( - ( + 0 Nl2main_bn1 ) ) ) 0 ) ( = ( + ( * 1 lam10n2 ) ( * Nl2main_tk1 lam10n3 ) ( * Nl2main_tk2 lam10n4 ) ) 0 ) ( = ( - ( + 0 ( * Nl2main_k1 1 ) ) ) 0 ) ) ))
(assert ( or ( and ( >= lam9n0 0 ) ( >= lam9n1 0 ) ( >= lam9n2 0 ) ( >= lam9n3 0 ) ( >= lam9n4 0 ) ( > ( + ( * 1 lam9n1 ) ( * 1 lam9n2 ) ( * Nl2CT1 lam9n3 ) ( * Nl2CT2 lam9n4 ) ( - 1 ) ) 0 ) ( = ( + ( * ( - 1 ) lam9n1 ) ( * Nl2main_i1 lam9n3 ) ( * Nl2main_i2 lam9n4 ) ) 0 ) ( = ( + ( * 1 lam9n0 ) ( * Nl2main_j1 lam9n3 ) ( * Nl2main_j2 lam9n4 ) ) 0 ) ( = ( + ( * ( - 1 ) lam9n2 ) ( * Nl2main_k1 lam9n3 ) ( * Nl2main_k2 lam9n4 ) ) 0 ) ( = ( + ( * 1 lam9n1 ) ( * Nl2main_an1 lam9n3 ) ( * Nl2main_an2 lam9n4 ) ) 0 ) ( = ( + ( * ( - 1 ) lam9n0 ) ( * Nl2main_bn1 lam9n3 ) ( * Nl2main_bn2 lam9n4 ) ) 0 ) ( = ( + ( * 1 lam9n2 ) ( * Nl2main_tk1 lam9n3 ) ( * Nl2main_tk2 lam9n4 ) ) 0 ) ) ( and ( >= lam11n0 0 ) ( >= lam11n1 0 ) ( >= lam11n2 0 ) ( >= lam11n3 0 ) ( >= lam11n4 0 ) ( > ( + ( * 1 lam11n1 ) ( * 1 lam11n2 ) ( * Nl2CT1 lam11n3 ) ( * Nl2CT2 lam11n4 ) ( - 1 ( + ( + ( + Nl2CT2 ( * Nl2main_j2 0 ) ) ( * Nl2main_k2 0 ) ) ( * Nl2main_tk2 0 ) ) ) ) 0 ) ( = ( + ( * ( - 1 ) lam11n1 ) ( * Nl2main_i1 lam11n3 ) ( * Nl2main_i2 lam11n4 ) ( - ( + 0 Nl2main_i2 ) ) ) 0 ) ( = ( + ( * 1 lam11n0 ) ( * Nl2main_j1 lam11n3 ) ( * Nl2main_j2 lam11n4 ) ( - ( + 0 ( * Nl2main_j2 1 ) ) ) ) 0 ) ( = ( + ( * ( - 1 ) lam11n2 ) ( * Nl2main_k1 lam11n3 ) ( * Nl2main_k2 lam11n4 ) ( - ( + ( + 0 ( * Nl2main_j2 1 ) ) ( * Nl2main_tk2 1 ) ) ) ) 0 ) ( = ( + ( * 1 lam11n1 ) ( * Nl2main_an1 lam11n3 ) ( * Nl2main_an2 lam11n4 ) ( - ( + 0 Nl2main_an2 ) ) ) 0 ) ( = ( + ( * ( - 1 ) lam11n0 ) ( * Nl2main_bn1 lam11n3 ) ( * Nl2main_bn2 lam11n4 ) ( - ( + 0 Nl2main_bn2 ) ) ) 0 ) ( = ( + ( * 1 lam11n2 ) ( * Nl2main_tk1 lam11n3 ) ( * Nl2main_tk2 lam11n4 ) ) 0 ) ( = ( - ( + 0 ( * Nl2main_k2 1 ) ) ) 0 ) ) ))
(assert ( and ( not ( <= ( + main_k ( * ( - 1 ) main_tk ) ) 0 ) ) ( = ( + main_i ( * ( - 1 ) undef10 ) ) 0 ) ( = ( + main_j ( * ( - 1 ) undef11 ) ) 0 ) ( = ( + main_k ( * ( - 1 ) undef12 ) ) 0 ) ( = ( + main_an ( * ( - 1 ) undef13 ) ) 0 ) ( = ( + main_bn ( * ( - 1 ) undef14 ) ) 0 ) ( = ( + main_tk ( * ( - 1 ) undef15 ) ) 0 ) ( <= ( + Nl2CT1 ( * ( + 0 Nl2main_i1 ) main_i ) ( * ( + 0 Nl2main_j1 ) main_j ) ( * ( + 0 Nl2main_k1 ) main_k ) ( * ( + 0 Nl2main_an1 ) main_an ) ( * ( + 0 Nl2main_bn1 ) main_bn ) ( * ( + 0 Nl2main_tk1 ) main_tk ) ) 0 ) ( <= ( + Nl2CT2 ( * ( + 0 Nl2main_i2 ) main_i ) ( * ( + 0 Nl2main_j2 ) main_j ) ( * ( + 0 Nl2main_k2 ) main_k ) ( * ( + 0 Nl2main_an2 ) main_an ) ( * ( + 0 Nl2main_bn2 ) main_bn ) ( * ( + 0 Nl2main_tk2 ) main_tk ) ) 0 ) ))
(assert ( or ( and ( and ( and ( >= lam17n0 0 ) ( >= lam17n1 0 ) ( >= lam17n2 0 ) ( >= lam17n4 0 ) ( >= lam17n5 0 ) ( > ( + ( * 1 lam17n2 ) ( * ( - 1 ) lam17n3 ) ( * Nl2CT1 lam17n4 ) ( * Nl2CT2 lam17n5 ) ( - 1 ( - ( + ( + ( + RFN1_CT ( * RFN1_main_j 0 ) ) ( * RFN1_main_k 0 ) ) ( * RFN1_main_tk 0 ) ) RFN1_CT ) ) ) 0 ) ( = ( + ( * 1 lam17n0 ) ( * Nl2main_i1 lam17n4 ) ( * Nl2main_i2 lam17n5 ) ( - ( - ( + 0 RFN1_main_i ) RFN1_main_i ) ) ) 0 ) ( = ( + ( * 1 lam17n1 ) ( * Nl2main_j1 lam17n4 ) ( * Nl2main_j2 lam17n5 ) ( - ( - ( + 0 ( * RFN1_main_j 1 ) ) RFN1_main_j ) ) ) 0 ) ( = ( + ( * ( - 1 ) lam17n2 ) ( * Nl2main_k1 lam17n4 ) ( * Nl2main_k2 lam17n5 ) ( - ( - ( + ( + 0 ( * RFN1_main_j 1 ) ) ( * RFN1_main_tk 1 ) ) RFN1_main_k ) ) ) 0 ) ( = ( + ( * ( - 1 ) lam17n0 ) ( * Nl2main_an1 lam17n4 ) ( * Nl2main_an2 lam17n5 ) ( - ( - ( + 0 RFN1_main_an ) RFN1_main_an ) ) ) 0 ) ( = ( + ( * ( - 1 ) lam17n1 ) ( * Nl2main_bn1 lam17n4 ) ( * Nl2main_bn2 lam17n5 ) ( - ( - ( + 0 RFN1_main_bn ) RFN1_main_bn ) ) ) 0 ) ( = ( + ( * 1 lam17n2 ) ( * Nl2main_tk1 lam17n4 ) ( * Nl2main_tk2 lam17n5 ) ( - ( - RFN1_main_tk ) ) ) 0 ) ( = ( * 1 lam17n3 ) 0 ) ( = ( - ( + 0 ( * RFN1_main_k 1 ) ) ) 0 ) ) ( and ( >= lam21n0 0 ) ( >= lam21n1 0 ) ( >= lam21n2 0 ) ( >= lam21n3 0 ) ( >= lam21n4 0 ) ( > ( + ( * 1 lam21n1 ) ( * 1 lam21n2 ) ( * Nl2CT1 lam21n3 ) ( * Nl2CT2 lam21n4 ) ( - 1 ( - ( + ( + ( + RFN1_CT ( * RFN1_main_j 0 ) ) ( * RFN1_main_k 0 ) ) ( * RFN1_main_tk 0 ) ) RFN1_CT ) ) ) 0 ) ( = ( + ( * ( - 1 ) lam21n1 ) ( * Nl2main_i1 lam21n3 ) ( * Nl2main_i2 lam21n4 ) ( - ( - ( + 0 RFN1_main_i ) RFN1_main_i ) ) ) 0 ) ( = ( + ( * 1 lam21n0 ) ( * Nl2main_j1 lam21n3 ) ( * Nl2main_j2 lam21n4 ) ( - ( - ( + 0 ( * RFN1_main_j 1 ) ) RFN1_main_j ) ) ) 0 ) ( = ( + ( * ( - 1 ) lam21n2 ) ( * Nl2main_k1 lam21n3 ) ( * Nl2main_k2 lam21n4 ) ( - ( - ( + ( + 0 ( * RFN1_main_j 1 ) ) ( * RFN1_main_tk 1 ) ) RFN1_main_k ) ) ) 0 ) ( = ( + ( * 1 lam21n1 ) ( * Nl2main_an1 lam21n3 ) ( * Nl2main_an2 lam21n4 ) ( - ( - ( + 0 RFN1_main_an ) RFN1_main_an ) ) ) 0 ) ( = ( + ( * ( - 1 ) lam21n0 ) ( * Nl2main_bn1 lam21n3 ) ( * Nl2main_bn2 lam21n4 ) ( - ( - ( + 0 RFN1_main_bn ) RFN1_main_bn ) ) ) 0 ) ( = ( + ( * 1 lam21n2 ) ( * Nl2main_tk1 lam21n3 ) ( * Nl2main_tk2 lam21n4 ) ( - ( - RFN1_main_tk ) ) ) 0 ) ( = ( - ( + 0 ( * RFN1_main_k 1 ) ) ) 0 ) ) ) ( or ( and ( and ( >= lam15n0 0 ) ( >= lam15n1 0 ) ( >= lam15n2 0 ) ( >= lam15n4 0 ) ( >= lam15n5 0 ) ( > ( + ( * 1 lam15n2 ) ( * ( - 1 ) lam15n3 ) ( * Nl2CT1 lam15n4 ) ( * Nl2CT2 lam15n5 ) ( - 1 ( - RFN1_CT ) ) ) 0 ) ( = ( + ( * 1 lam15n0 ) ( * Nl2main_i1 lam15n4 ) ( * Nl2main_i2 lam15n5 ) ( - ( - RFN1_main_i ) ) ) 0 ) ( = ( + ( * 1 lam15n1 ) ( * Nl2main_j1 lam15n4 ) ( * Nl2main_j2 lam15n5 ) ( - ( - RFN1_main_j ) ) ) 0 ) ( = ( + ( * ( - 1 ) lam15n2 ) ( * Nl2main_k1 lam15n4 ) ( * Nl2main_k2 lam15n5 ) ( - ( - RFN1_main_k ) ) ) 0 ) ( = ( + ( * ( - 1 ) lam15n0 ) ( * Nl2main_an1 lam15n4 ) ( * Nl2main_an2 lam15n5 ) ( - ( - RFN1_main_an ) ) ) 0 ) ( = ( + ( * ( - 1 ) lam15n1 ) ( * Nl2main_bn1 lam15n4 ) ( * Nl2main_bn2 lam15n5 ) ( - ( - RFN1_main_bn ) ) ) 0 ) ( = ( + ( * 1 lam15n2 ) ( * Nl2main_tk1 lam15n4 ) ( * Nl2main_tk2 lam15n5 ) ( - ( - RFN1_main_tk ) ) ) 0 ) ( = ( * 1 lam15n3 ) 0 ) ) ( and ( >= lam16n0 0 ) ( >= lam16n1 0 ) ( >= lam16n2 0 ) ( >= lam16n4 0 ) ( >= lam16n5 0 ) ( > ( + ( * 1 lam16n2 ) ( * ( - 1 ) lam16n3 ) ( * Nl2CT1 lam16n4 ) ( * Nl2CT2 lam16n5 ) ( - 1 ( + ( - ( + ( + ( + RFN1_CT ( * RFN1_main_j 0 ) ) ( * RFN1_main_k 0 ) ) ( * RFN1_main_tk 0 ) ) RFN1_CT ) 1 ) ) ) 0 ) ( = ( + ( * 1 lam16n0 ) ( * Nl2main_i1 lam16n4 ) ( * Nl2main_i2 lam16n5 ) ( - ( - ( + 0 RFN1_main_i ) RFN1_main_i ) ) ) 0 ) ( = ( + ( * 1 lam16n1 ) ( * Nl2main_j1 lam16n4 ) ( * Nl2main_j2 lam16n5 ) ( - ( - ( + 0 ( * RFN1_main_j 1 ) ) RFN1_main_j ) ) ) 0 ) ( = ( + ( * ( - 1 ) lam16n2 ) ( * Nl2main_k1 lam16n4 ) ( * Nl2main_k2 lam16n5 ) ( - ( - ( + ( + 0 ( * RFN1_main_j 1 ) ) ( * RFN1_main_tk 1 ) ) RFN1_main_k ) ) ) 0 ) ( = ( + ( * ( - 1 ) lam16n0 ) ( * Nl2main_an1 lam16n4 ) ( * Nl2main_an2 lam16n5 ) ( - ( - ( + 0 RFN1_main_an ) RFN1_main_an ) ) ) 0 ) ( = ( + ( * ( - 1 ) lam16n1 ) ( * Nl2main_bn1 lam16n4 ) ( * Nl2main_bn2 lam16n5 ) ( - ( - ( + 0 RFN1_main_bn ) RFN1_main_bn ) ) ) 0 ) ( = ( + ( * 1 lam16n2 ) ( * Nl2main_tk1 lam16n4 ) ( * Nl2main_tk2 lam16n5 ) ( - ( - RFN1_main_tk ) ) ) 0 ) ( = ( * 1 lam16n3 ) 0 ) ( = ( - ( + 0 ( * RFN1_main_k 1 ) ) ) 0 ) ) ) ( and ( and ( >= lam19n0 0 ) ( >= lam19n1 0 ) ( >= lam19n2 0 ) ( >= lam19n3 0 ) ( >= lam19n4 0 ) ( > ( + ( * 1 lam19n1 ) ( * 1 lam19n2 ) ( * Nl2CT1 lam19n3 ) ( * Nl2CT2 lam19n4 ) ( - 1 ( - RFN1_CT ) ) ) 0 ) ( = ( + ( * ( - 1 ) lam19n1 ) ( * Nl2main_i1 lam19n3 ) ( * Nl2main_i2 lam19n4 ) ( - ( - RFN1_main_i ) ) ) 0 ) ( = ( + ( * 1 lam19n0 ) ( * Nl2main_j1 lam19n3 ) ( * Nl2main_j2 lam19n4 ) ( - ( - RFN1_main_j ) ) ) 0 ) ( = ( + ( * ( - 1 ) lam19n2 ) ( * Nl2main_k1 lam19n3 ) ( * Nl2main_k2 lam19n4 ) ( - ( - RFN1_main_k ) ) ) 0 ) ( = ( + ( * 1 lam19n1 ) ( * Nl2main_an1 lam19n3 ) ( * Nl2main_an2 lam19n4 ) ( - ( - RFN1_main_an ) ) ) 0 ) ( = ( + ( * ( - 1 ) lam19n0 ) ( * Nl2main_bn1 lam19n3 ) ( * Nl2main_bn2 lam19n4 ) ( - ( - RFN1_main_bn ) ) ) 0 ) ( = ( + ( * 1 lam19n2 ) ( * Nl2main_tk1 lam19n3 ) ( * Nl2main_tk2 lam19n4 ) ( - ( - RFN1_main_tk ) ) ) 0 ) ) ( and ( >= lam20n0 0 ) ( >= lam20n1 0 ) ( >= lam20n2 0 ) ( >= lam20n3 0 ) ( >= lam20n4 0 ) ( > ( + ( * 1 lam20n1 ) ( * 1 lam20n2 ) ( * Nl2CT1 lam20n3 ) ( * Nl2CT2 lam20n4 ) ( - 1 ( + ( - ( + ( + ( + RFN1_CT ( * RFN1_main_j 0 ) ) ( * RFN1_main_k 0 ) ) ( * RFN1_main_tk 0 ) ) RFN1_CT ) 1 ) ) ) 0 ) ( = ( + ( * ( - 1 ) lam20n1 ) ( * Nl2main_i1 lam20n3 ) ( * Nl2main_i2 lam20n4 ) ( - ( - ( + 0 RFN1_main_i ) RFN1_main_i ) ) ) 0 ) ( = ( + ( * 1 lam20n0 ) ( * Nl2main_j1 lam20n3 ) ( * Nl2main_j2 lam20n4 ) ( - ( - ( + 0 ( * RFN1_main_j 1 ) ) RFN1_main_j ) ) ) 0 ) ( = ( + ( * ( - 1 ) lam20n2 ) ( * Nl2main_k1 lam20n3 ) ( * Nl2main_k2 lam20n4 ) ( - ( - ( + ( + 0 ( * RFN1_main_j 1 ) ) ( * RFN1_main_tk 1 ) ) RFN1_main_k ) ) ) 0 ) ( = ( + ( * 1 lam20n1 ) ( * Nl2main_an1 lam20n3 ) ( * Nl2main_an2 lam20n4 ) ( - ( - ( + 0 RFN1_main_an ) RFN1_main_an ) ) ) 0 ) ( = ( + ( * ( - 1 ) lam20n0 ) ( * Nl2main_bn1 lam20n3 ) ( * Nl2main_bn2 lam20n4 ) ( - ( - ( + 0 RFN1_main_bn ) RFN1_main_bn ) ) ) 0 ) ( = ( + ( * 1 lam20n2 ) ( * Nl2main_tk1 lam20n3 ) ( * Nl2main_tk2 lam20n4 ) ( - ( - RFN1_main_tk ) ) ) 0 ) ( = ( - ( + 0 ( * RFN1_main_k 1 ) ) ) 0 ) ) ) ) ) ( or ( and ( >= lam14n0 0 ) ( >= lam14n1 0 ) ( >= lam14n2 0 ) ( >= lam14n4 0 ) ( >= lam14n5 0 ) ( > ( + ( * 1 lam14n2 ) ( * ( - 1 ) lam14n3 ) ( * Nl2CT1 lam14n4 ) ( * Nl2CT2 lam14n5 ) ( - 1 ) ) 0 ) ( = ( + ( * 1 lam14n0 ) ( * Nl2main_i1 lam14n4 ) ( * Nl2main_i2 lam14n5 ) ) 0 ) ( = ( + ( * 1 lam14n1 ) ( * Nl2main_j1 lam14n4 ) ( * Nl2main_j2 lam14n5 ) ) 0 ) ( = ( + ( * ( - 1 ) lam14n2 ) ( * Nl2main_k1 lam14n4 ) ( * Nl2main_k2 lam14n5 ) ) 0 ) ( = ( + ( * ( - 1 ) lam14n0 ) ( * Nl2main_an1 lam14n4 ) ( * Nl2main_an2 lam14n5 ) ) 0 ) ( = ( + ( * ( - 1 ) lam14n1 ) ( * Nl2main_bn1 lam14n4 ) ( * Nl2main_bn2 lam14n5 ) ) 0 ) ( = ( + ( * 1 lam14n2 ) ( * Nl2main_tk1 lam14n4 ) ( * Nl2main_tk2 lam14n5 ) ) 0 ) ( = ( * 1 lam14n3 ) 0 ) ) ( and ( >= lam18n0 0 ) ( >= lam18n1 0 ) ( >= lam18n2 0 ) ( >= lam18n3 0 ) ( >= lam18n4 0 ) ( > ( + ( * 1 lam18n1 ) ( * 1 lam18n2 ) ( * Nl2CT1 lam18n3 ) ( * Nl2CT2 lam18n4 ) ( - 1 ) ) 0 ) ( = ( + ( * ( - 1 ) lam18n1 ) ( * Nl2main_i1 lam18n3 ) ( * Nl2main_i2 lam18n4 ) ) 0 ) ( = ( + ( * 1 lam18n0 ) ( * Nl2main_j1 lam18n3 ) ( * Nl2main_j2 lam18n4 ) ) 0 ) ( = ( + ( * ( - 1 ) lam18n2 ) ( * Nl2main_k1 lam18n3 ) ( * Nl2main_k2 lam18n4 ) ) 0 ) ( = ( + ( * 1 lam18n1 ) ( * Nl2main_an1 lam18n3 ) ( * Nl2main_an2 lam18n4 ) ) 0 ) ( = ( + ( * ( - 1 ) lam18n0 ) ( * Nl2main_bn1 lam18n3 ) ( * Nl2main_bn2 lam18n4 ) ) 0 ) ( = ( + ( * 1 lam18n2 ) ( * Nl2main_tk1 lam18n3 ) ( * Nl2main_tk2 lam18n4 ) ) 0 ) ) ) ))
(check-sat)
(exit)
